Geographic Exponential Decay
80 292 83 287 45 29 184 33 115 0 197 221 50 117 135 72 267 107 31 100 285 144 79 261 54 183 299 19 198 256 37 202 206 58 53 142 244 201 64 241 289 55 233 116 273 146 23 254 15 195 200 62 44 210 286 69 317 59 42 81 199 305 160 24 109 240 156 90 283 260 28 163 84 297 268 186 243 158 125 165 10
p edge 320 676
e 0 295 84.0
e 0 304 4.0
e 0 43 82.0
e 0 188 90.0
e 0 298 62.0
e 0 14 94.0
e 0 153 32.0
e 0 60 27.0
e 0 47 49.0
e 1 307 44.0
e 1 309 3.0
e 1 219 19.0
e 1 311 16.0
e 1 316 38.0
e 2 212 4.0
e 2 225 7.0
e 3 184 56.0
e 4 52 2.0
e 5 294 2.0
e 6 109 47.0
e 6 102 10.0
e 6 280 19.0
e 6 201 24.0
e 6 149 8.0
e 7 201 21.0
e 8 81 13.0
e 9 92 3.0
e 10 106 92.0
e 10 43 15.0
e 10 87 84.0
e 10 5 11.0
e 10 158 62.0
e 10 215 16.0
e 10 303 38.0
e 10 292 86.0
e 10 201 83.0
e 11 80 2.0
e 12 313 8.0
e 12 244 48.0
e 13 217 1.0
e 14 80 9.0
e 15 124 17.0
e 15 118 87.0
e 15 204 52.0
e 15 79 47.0
e 15 277 77.0
e 15 228 23.0
e 15 247 30.0
e 15 7 48.0
e 15 200 16.0
e 16 178 1.0
e 17 197 100.0
e 17 296 3.0
e 18 93 13.0
e 18 8 19.0
e 18 26 9.0
e 19 282 10.0
e 19 240 30.0
e 19 67 3.0
e 19 268 35.0
e 19 175 35.0
e 19 58 99.0
e 19 116 57.0
e 19 117 38.0
e 19 50 14.0
e 20 172 5.0
e 21 176 13.0
e 22 258 5.0
e 23 232 67.0
e 23 95 45.0
e 23 56 49.0
e 23 303 80.0
e 23 50 9.0
e 23 28 21.0
e 23 118 60.0
e 23 197 17.0
e 23 151 11.0
e 24 84 29.0
e 24 244 93.0
e 24 187 70.0
e 24 313 48.0
e 24 105 99.0
e 24 76 64.0
e 24 306 52.0
e 24 304 35.0
e 24 305 92.0
e 25 149 4.0
e 27 264 3.0
e 28 315 31.0
e 28 50 40.0
e 28 111 25.0
e 28 160 26.0
e 28 275 82.0
e 28 106 85.0
e 28 173 47.0
e 28 29 62.0
e 29 316 67.0
e 29 122 35.0
e 29 314 24.0
e 29 63 64.0
e 29 65 67.0
e 29 219 35.0
e 29 55 67.0
e 29 289 19.0
e 30 241 80.0
e 31 202 73.0
e 31 133 77.0
e 31 301 86.0
e 31 269 45.0
e 31 314 89.0
e 31 12 75.0
e 31 119 51.0
e 31 120 46.0
e 31 198 8.0
e 32 119 1.0
e 33 204 92.0
e 33 131 17.0
e 33 278 98.0
e 33 237 34.0
e 33 282 20.0
e 33 45 64.0
e 33 220 26.0
e 33 162 21.0
e 33 187 15.0
e 34 114 1.0
e 35 145 7.0
e 35 288 11.0
e 36 251 5.0
e 37 11 59.0
e 37 301 53.0
e 37 253 94.0
e 37 92 58.0
e 37 63 42.0
e 37 172 14.0
e 37 102 73.0
e 37 173 13.0
e 37 94 19.0
e 38 225 2.0
e 39 277 4.0
e 40 158 34.0
e 41 116 22.0
e 42 114 73.0
e 42 166 37.0
e 42 220 40.0
e 42 164 5.0
e 42 67 4.0
e 42 103 93.0
e 42 312 61.0
e 42 275 50.0
e 42 186 39.0
e 44 99 11.0
e 44 23 72.0
e 44 76 42.0
e 44 169 60.0
e 44 252 21.0
e 44 115 81.0
e 44 155 14.0
e 44 228 77.0
e 44 274 70.0
e 45 181 9.0
e 45 81 62.0
e 45 299 10.0
e 45 300 56.0
e 45 310 87.0
e 45 13 90.0
e 45 38 27.0
e 45 62 15.0
e 46 105 2.0
e 48 276 6.0
e 49 174 22.0
e 49 214 6.0
e 49 212 14.0
e 50 1 21.0
e 50 302 22.0
e 50 90 13.0
e 50 280 55.0
e 50 94 5.0
e 50 267 57.0
e 51 194 5.0
e 53 261 85.0
e 53 271 48.0
e 53 222 11.0
e 53 82 28.0
e 53 159 21.0
e 53 141 27.0
e 53 227 41.0
e 53 312 78.0
e 53 288 42.0
e 54 32 44.0
e 54 128 32.0
e 54 286 7.0
e 54 315 8.0
e 54 50 92.0
e 54 19 69.0
e 54 318 50.0
e 54 289 99.0
e 54 171 72.0
e 55 139 77.0
e 55 174 4.0
e 55 166 96.0
e 55 217 19.0
e 55 42 58.0
e 55 137 27.0
e 55 145 29.0
e 55 223 38.0
e 57 2 4.0
e 58 238 75.0
e 58 201 64.0
e 58 237 71.0
e 58 283 57.0
e 58 175 26.0
e 58 279 65.0
e 58 20 11.0
e 58 264 53.0
e 59 140 99.0
e 59 315 5.0
e 59 263 12.0
e 59 222 45.0
e 59 129 86.0
e 59 305 78.0
e 59 249 87.0
e 59 106 33.0
e 59 258 3.0
e 60 37 18.0
e 60 167 21.0
e 61 64 46.0
e 62 61 83.0
e 62 121 4.0
e 62 97 79.0
e 62 193 32.0
e 62 251 22.0
e 62 72 47.0
e 62 224 99.0
e 62 302 38.0
e 64 193 60.0
e 64 189 35.0
e 64 284 80.0
e 64 93 14.0
e 64 53 15.0
e 64 17 18.0
e 64 196 60.0
e 64 98 33.0
e 66 182 3.0
e 68 88 2.0
e 68 138 12.0
e 69 192 42.0
e 69 44 49.0
e 69 292 50.0
e 69 293 53.0
e 69 146 8.0
e 69 210 77.0
e 69 21 53.0
e 69 95 15.0
e 69 55 93.0
e 70 306 8.0
e 70 253 6.0
e 71 9 24.0
e 71 192 6.0
e 71 81 29.0
e 72 292 13.0
e 72 183 64.0
e 72 198 73.0
e 72 133 17.0
e 72 235 31.0
e 72 129 24.0
e 72 51 12.0
e 72 52 70.0
e 73 141 1.0
e 74 194 3.0
e 75 117 43.0
e 77 14 10.0
e 77 54 55.0
e 77 104 1.0
e 78 45 6.0
e 78 89 1.0
e 78 111 3.0
e 79 201 24.0
e 79 297 44.0
e 79 85 67.0
e 79 167 48.0
e 79 96 18.0
e 79 78 65.0
e 79 46 19.0
e 79 246 70.0
e 81 60 59.0
e 81 155 2.0
e 81 163 69.0
e 81 150 19.0
e 81 68 50.0
e 81 152 86.0
e 83 112 50.0
e 83 129 51.0
e 83 113 87.0
e 83 201 24.0
e 83 109 49.0
e 83 206 59.0
e 83 159 75.0
e 83 238 60.0
e 83 176 66.0
e 84 297 20.0
e 84 28 75.0
e 84 274 43.0
e 84 126 92.0
e 84 188 61.0
e 84 65 95.0
e 84 112 30.0
e 84 64 71.0
e 86 66 5.0
e 90 270 75.0
e 90 18 43.0
e 90 138 76.0
e 90 79 15.0
e 90 244 55.0
e 90 160 86.0
e 90 153 37.0
e 90 6 87.0
e 91 261 89.0
e 95 227 25.0
e 96 218 12.0
e 100 176 100.0
e 100 305 76.0
e 100 195 19.0
e 100 77 6.0
e 100 76 65.0
e 100 22 48.0
e 100 168 83.0
e 100 178 15.0
e 100 278 12.0
e 101 47 1.0
e 104 15 100.0
e 107 56 66.0
e 107 198 75.0
e 107 205 93.0
e 107 69 35.0
e 107 207 62.0
e 107 312 71.0
e 107 176 70.0
e 107 306 22.0
e 107 88 86.0
e 108 70 11.0
e 108 86 10.0
e 108 177 5.0
e 109 283 98.0
e 109 188 42.0
e 109 276 29.0
e 109 252 26.0
e 109 231 94.0
e 109 226 51.0
e 109 169 98.0
e 110 255 5.0
e 115 296 9.0
e 115 108 93.0
e 115 307 2.0
e 115 16 93.0
e 115 39 88.0
e 115 223 3.0
e 115 177 15.0
e 115 48 7.0
e 116 117 13.0
e 116 137 80.0
e 116 49 50.0
e 116 147 98.0
e 116 226 84.0
e 116 253 95.0
e 116 317 57.0
e 117 139 36.0
e 117 236 49.0
e 117 113 33.0
e 117 257 86.0
e 117 161 76.0
e 117 239 15.0
e 123 244 20.0
e 123 273 46.0
e 123 24 7.0
e 123 291 27.0
e 123 196 39.0
e 124 120 2.0
e 125 75 34.0
e 125 267 28.0
e 125 140 46.0
e 125 89 51.0
e 125 158 31.0
e 125 178 32.0
e 125 71 27.0
e 125 160 26.0
e 125 156 36.0
e 127 25 2.0
e 128 312 4.0
e 130 62 24.0
e 130 26 12.0
e 131 195 64.0
e 132 281 3.0
e 134 297 10.0
e 135 40 4.0
e 135 97 59.0
e 135 318 73.0
e 135 271 24.0
e 135 206 70.0
e 135 57 1.0
e 135 250 67.0
e 135 31 31.0
e 135 121 92.0
e 136 115 100.0
e 140 243 58.0
e 142 265 64.0
e 142 256 19.0
e 142 286 21.0
e 142 27 89.0
e 142 254 53.0
e 142 95 90.0
e 142 72 41.0
e 142 199 83.0
e 142 116 100.0
e 143 100 68.0
e 144 58 3.0
e 144 117 97.0
e 144 123 10.0
e 144 229 21.0
e 144 134 99.0
e 144 272 26.0
e 144 29 61.0
e 144 110 29.0
e 144 250 74.0
e 146 246 12.0
e 146 180 79.0
e 146 81 47.0
e 146 10 32.0
e 146 96 72.0
e 146 135 58.0
e 146 90 60.0
e 146 136 14.0
e 147 98 9.0
e 148 140 3.0
e 154 73 1.0
e 156 30 68.0
e 156 33 4.0
e 156 131 58.0
e 156 168 100.0
e 156 254 93.0
e 156 91 1.0
e 156 142 15.0
e 156 34 89.0
e 157 156 4.0
e 158 122 42.0
e 158 99 46.0
e 158 35 47.0
e 158 261 17.0
e 158 290 48.0
e 158 292 19.0
e 160 126 87.0
e 160 101 66.0
e 160 74 96.0
e 160 3 71.0
e 160 297 47.0
e 160 59 37.0
e 161 36 10.0
e 163 82 28.0
e 163 124 4.0
e 163 41 34.0
e 163 107 89.0
e 163 319 16.0
e 163 83 79.0
e 163 254 58.0
e 163 103 2.0
e 165 84 57.0
e 165 85 21.0
e 165 195 65.0
e 165 87 67.0
e 165 218 48.0
e 165 104 35.0
e 165 152 11.0
e 165 4 42.0
e 165 157 35.0
e 170 125 96.0
e 179 259 1.0
e 183 247 34.0
e 183 109 70.0
e 183 195 73.0
e 183 132 88.0
e 183 127 52.0
e 183 128 92.0
e 183 300 13.0
e 183 143 44.0
e 184 130 2.0
e 184 144 20.0
e 184 146 90.0
e 184 265 70.0
e 184 239 11.0
e 184 147 86.0
e 184 170 91.0
e 184 148 13.0
e 185 208 1.0
e 186 281 16.0
e 186 189 57.0
e 186 150 98.0
e 186 190 32.0
e 186 151 93.0
e 186 154 72.0
e 186 240 21.0
e 186 158 31.0
e 191 317 88.0
e 195 160 18.0
e 195 161 34.0
e 195 162 5.0
e 195 163 86.0
e 195 283 10.0
e 197 164 61.0
e 197 273 30.0
e 197 195 69.0
e 197 165 35.0
e 197 297 7.0
e 197 171 89.0
e 197 179 41.0
e 198 242 53.0
e 198 224 87.0
e 198 233 89.0
e 198 180 29.0
e 198 279 40.0
e 198 309 40.0
e 199 181 4.0
e 199 182 58.0
e 199 254 15.0
e 199 183 9.0
e 199 184 12.0
e 199 185 16.0
e 199 186 52.0
e 199 190 32.0
e 200 191 76.0
e 200 197 27.0
e 200 198 27.0
e 200 289 54.0
e 200 221 86.0
e 200 236 11.0
e 200 199 71.0
e 200 208 2.0
e 201 200 40.0
e 201 202 91.0
e 201 319 43.0
e 202 203 22.0
e 202 205 15.0
e 202 206 9.0
e 202 207 9.0
e 202 216 10.0
e 202 209 16.0
e 202 210 25.0
e 206 272 5.0
e 206 294 85.0
e 206 201 67.0
e 206 203 55.0
e 206 209 27.0
e 206 210 38.0
e 210 211 65.0
e 210 240 22.0
e 210 212 22.0
e 210 213 23.0
e 210 214 75.0
e 210 215 80.0
e 211 202 46.0
e 213 283 9.0
e 221 283 2.0
e 221 206 92.0
e 221 213 5.0
e 221 224 93.0
e 221 273 22.0
e 221 284 76.0
e 221 210 15.0
e 221 285 15.0
e 224 235 34.0
e 224 211 45.0
e 227 212 6.0
e 230 262 6.0
e 233 216 23.0
e 233 218 47.0
e 233 317 75.0
e 233 221 25.0
e 233 263 10.0
e 233 224 87.0
e 233 227 26.0
e 233 229 71.0
e 234 230 5.0
e 234 231 11.0
e 240 232 13.0
e 240 233 12.0
e 240 234 61.0
e 240 241 36.0
e 240 254 41.0
e 240 242 10.0
e 241 243 40.0
e 241 244 43.0
e 241 245 7.0
e 241 248 83.0
e 241 254 42.0
e 241 259 48.0
e 241 249 73.0
e 243 295 60.0
e 243 290 12.0
e 243 240 49.0
e 243 244 59.0
e 243 289 87.0
e 243 245 76.0
e 243 305 89.0
e 244 248 63.0
e 244 249 30.0
e 244 254 82.0
e 254 243 73.0
e 254 255 53.0
e 256 241 98.0
e 256 244 39.0
e 256 254 43.0
e 256 279 24.0
e 256 257 90.0
e 256 305 59.0
e 256 283 15.0
e 256 308 8.0
e 260 273 87.0
e 260 256 12.0
e 260 261 84.0
e 260 262 72.0
e 260 265 45.0
e 260 266 50.0
e 260 267 3.0
e 260 283 11.0
e 260 268 13.0
e 261 262 46.0
e 261 317 57.0
e 261 265 90.0
e 261 266 40.0
e 261 267 82.0
e 267 268 78.0
e 267 269 26.0
e 267 305 11.0
e 267 270 25.0
e 267 308 24.0
e 268 261 36.0
e 268 273 17.0
e 268 283 76.0
e 268 284 82.0
e 268 285 67.0
e 268 286 76.0
e 273 267 52.0
e 273 283 16.0
e 273 284 70.0
e 273 285 45.0
e 285 283 58.0
e 285 286 29.0
e 285 260 8.0
e 285 287 20.0
e 285 289 100.0
e 285 291 7.0
e 286 273 75.0
e 286 287 13.0
e 286 289 70.0
e 286 292 25.0
e 286 305 94.0
e 287 268 44.0
e 287 289 36.0
e 287 292 67.0
e 287 293 74.0
e 287 297 42.0
e 287 298 25.0
e 287 299 78.0
e 289 292 61.0
e 289 297 21.0
e 292 285 30.0
e 292 297 97.0
e 297 286 18.0
e 299 289 65.0
e 299 292 50.0
e 299 297 31.0
e 299 305 52.0
e 299 310 80.0
e 299 311 73.0
e 299 317 17.0
e 305 317 84.0
e 317 287 85.0
e 317 0 58.0
